p cnf 7230 17
2186 -2886 2889 0
-2887 -2889 0
-1304 -2164 2883 0
2164 -2883 0
-2170 -2196 -2884 0
2170 -2885 0
2886 2887 0
2884 2885 0
-2186 -2887 0
2196 -2885 0
2888 2889 0
2172 -2889 0
-2172 -2888 0
-2174 2891 0
2174 -2891 0
2882 2883 0
-2882 -2883 0
